2956291
23,108,51,97,33,0,4,34,44,81,100,25,40,8,65,48,10,9,63,73,52,21,76,101,30,37,38,69,68,13,7,39,95,96,70,46,6,49,18,72,12,99,104,86,61,92,55,20,16,57,103,90,53,88,74,56,85,36,71,26,98,75,17,87,64,105,77,107,54,27,11,41,59,35,32,67,47,62,28,58,93,31,84,2,15,50,83,1,80,106,24,45,82,14,79,22,43,3,66,102,91,5,29,94,42,60,78,19,89
